681,-14
611,-38
681,-104
727,110
644,169
858,59
782,93
573,193
227,637
385,702
584,336
695,318
795,369
710,410
708,459
702,427
733,478
874,672
1041,406
1214,322
945,42
830,112
207,481
602,909
548,474
657,423
745,605
762,566
947,364
751,309
972,195
